; benchmark generated from python API
(set-info :status unknown)
(declare-datatypes ((RealState 0)) (((RMk1 (rval1 Real)) (RMk2 (rval2 Real)))))
 (assert
 (exists ((?x1_st RealState) (val!570 Real) )(forall ((?x2 Real) )(exists ((?x3_st RealState) (val!571 Real) )(let ((?x31098 (+ (+ (* 4.0 (rval2 ?x1_st)) (* 51.0 ?x2)) (* (- 69.0) (rval2 ?x3_st)))))
 (let (($x8100 (and (= ?x31098 3.0) (> (+ (* (- 79.0) ?x2) (* 38.0 (rval2 ?x3_st))) 92.0))))
 (let ((?x13952 (- 21.0)))
 (let ((?x2820 (+ (+ (* (- 25.0) (rval2 ?x1_st)) (* (- 11.0) ?x2)) (* 85.0 (rval2 ?x3_st)))))
 (let (($x23313 (or (> ?x2820 ?x13952) (< (+ (* (- 87.0) (rval2 ?x1_st)) (* 37.0 ?x2)) 79.0))))
 (let ((?x12491 (rval2 ?x3_st)))
 (let ((?x20396 (* 61.0 ?x12491)))
 (let (($x39157 (or (> (+ (* (- 68.0) (rval2 ?x1_st)) (* 27.0 ?x12491)) (- 78.0)) (< (+ (+ (* (- 92.0) (rval2 ?x1_st)) (* 5.0 ?x2)) ?x20396) 97.0))))
 (let (($x10810 (< (+ (+ (* (- 5.0) (rval2 ?x1_st)) (* 11.0 ?x2)) (* 23.0 ?x12491)) 40.0)))
 (let ((?x28263 (- 33.0)))
 (let ((?x31957 (+ (+ (* 53.0 (rval2 ?x1_st)) (* (- 79.0) ?x2)) (* (- 41.0) ?x12491))))
 (let (($x8273 (and (= ?x31957 ?x28263) (and (> (+ (* 79.0 (rval2 ?x1_st)) (* 14.0 ?x12491)) 0.0) $x10810))))
 (let (($x22927 (= (+ (+ (* 75.0 (rval2 ?x1_st)) (* (- 62.0) ?x2)) (* 24.0 ?x12491)) 33.0)))
 (let ((?x39175 (+ (+ (* (- 31.0) (rval2 ?x1_st)) (* 67.0 ?x2)) (* (- 2.0) ?x12491))))
 (let ((?x39267 (- 54.0)))
 (let (($x17464 (= (+ (+ (* 32.0 (rval2 ?x1_st)) (* (- 25.0) ?x2)) (* 23.0 ?x12491)) ?x39267)))
 (let (($x1190 (or (<= (+ (* (- 23.0) ?x2) (* (- 70.0) ?x12491)) (- 91.0)) (not $x17464))))
 (let (($x25604 (or (or (and $x1190 (or (< ?x39175 82.0) (not $x22927))) $x8273) (or (and $x39157 $x23313) $x8100))))
 (let (($x28092 (or (= (+ (* 44.0 ?x2) (* (- 50.0) ?x12491)) 0.0) (>= (+ (* (- 51.0) ?x2) (* (- 63.0) ?x12491)) (- 47.0)))))
 (let ((?x10390 (- 90.0)))
 (let ((?x22511 (+ (+ (* (- 86.0) (rval2 ?x1_st)) (* (- 26.0) ?x2)) (* (- 75.0) ?x12491))))
 (let (($x39264 (or (not (= ?x22511 ?x10390)) (> (+ (* 31.0 ?x2) (* 72.0 ?x12491)) 0.0))))
 (let (($x5097 (= (+ (+ (* 8.0 (rval2 ?x1_st)) (* (- 66.0) ?x2)) (* 76.0 ?x12491)) 30.0)))
 (let (($x21801 (or (not (= (+ (* 88.0 (rval2 ?x1_st)) (* 40.0 ?x12491)) 0.0)) $x5097)))
 (let ((?x15205 (- 4.0)))
 (let ((?x20377 (+ (+ (* (- 92.0) (rval2 ?x1_st)) (* (- 65.0) ?x2)) (* 20.0 ?x12491))))
 (let (($x14160 (<= (+ (+ (* 50.0 (rval2 ?x1_st)) (* 72.0 ?x2)) (* (- 6.0) ?x12491)) ?x15205)))
 (let (($x4612 (or (and $x14160 (< (+ (* (- 73.0) ?x2) (* 88.0 ?x12491)) (- 2.0))) (not (= ?x20377 ?x15205)))))
 (let (($x29056 (> (+ (+ (* 15.0 (rval2 ?x1_st)) (* (- 74.0) ?x2)) (* 99.0 ?x12491)) 0.0)))
 (let ((?x29487 (+ (+ (* 63.0 (rval2 ?x1_st)) (* (- 98.0) ?x2)) (* (- 94.0) ?x12491))))
 (let ((?x5891 (- 50.0)))
 (let ((?x6712 (+ (+ (* (- 86.0) (rval2 ?x1_st)) (* 50.0 ?x2)) (* (- 80.0) ?x12491))))
 (let ((?x19671 (+ (+ (* (- 80.0) (rval2 ?x1_st)) (* 14.0 ?x2)) (* (- 23.0) ?x12491))))
 (let (($x527 (and (and (>= ?x19671 19.0) (< ?x6712 ?x5891)) (and (not (= ?x29487 69.0)) $x29056))))
 (let (($x636 (not (= ?x3_st (RMk1 val!571)))))
 (let (($x12990 (not (= ?x1_st (RMk1 val!570)))))
 (and $x12990 $x636 (and (and (and $x527 $x4612) (or $x21801 (or $x39264 $x28092))) $x25604)))))))))))))))))))))))))))))))))))))))
 )
 )
 )
(check-sat)
